c strEdges: 189  randomEdges: 441 
c degrees:  2  3 
c girth: 10 max: 8.032766  
c Hgirth mixed MAXCUT instance
c generated from an undirected graph
c to solve unweighted MaxCut
p cnf 140 1260
27 69 0
-27 -69 0
27 77 0
-27 -77 0
27 56 0
-27 -56 0
38 39 0
-38 -39 0
38 66 0
-38 -66 0
84 107 0
-84 -107 0
84 24 0
-84 -24 0
84 82 0
-84 -82 0
61 28 0
-61 -28 0
61 62 0
-61 -62 0
61 71 0
-61 -71 0
47 119 0
-47 -119 0
47 110 0
-47 -110 0
1 36 0
-1 -36 0
1 2 0
-1 -2 0
1 4 0
-1 -4 0
16 127 0
-16 -127 0
16 80 0
-16 -80 0
16 102 0
-16 -102 0
113 56 0
-113 -56 0
113 129 0
-113 -129 0
113 79 0
-113 -79 0
19 123 0
-19 -123 0
19 42 0
-19 -42 0
26 4 0
-26 -4 0
26 17 0
-26 -17 0
18 129 0
-18 -129 0
18 14 0
-18 -14 0
18 88 0
-18 -88 0
121 2 0
-121 -2 0
121 82 0
-121 -82 0
75 20 0
-75 -20 0
75 62 0
-75 -62 0
139 78 0
-139 -78 0
139 57 0
-139 -57 0
139 28 0
-139 -28 0
140 25 0
-140 -25 0
140 86 0
-140 -86 0
140 67 0
-140 -67 0
118 117 0
-118 -117 0
118 127 0
-118 -127 0
130 66 0
-130 -66 0
130 92 0
-130 -92 0
130 56 0
-130 -56 0
5 63 0
-5 -63 0
5 133 0
-5 -133 0
5 127 0
-5 -127 0
37 49 0
-37 -49 0
37 25 0
-37 -25 0
37 110 0
-37 -110 0
70 102 0
-70 -102 0
70 101 0
-70 -101 0
21 111 0
-21 -111 0
21 12 0
-21 -12 0
21 92 0
-21 -92 0
54 96 0
-54 -96 0
54 87 0
-54 -87 0
54 88 0
-54 -88 0
30 137 0
-30 -137 0
30 74 0
-30 -74 0
85 60 0
-85 -60 0
85 33 0
-85 -33 0
85 81 0
-85 -81 0
138 71 0
-138 -71 0
138 65 0
-138 -65 0
104 50 0
-104 -50 0
104 107 0
-104 -107 0
104 79 0
-104 -79 0
120 88 0
-120 -88 0
120 132 0
-120 -132 0
120 23 0
-120 -23 0
8 14 0
-8 -14 0
8 4 0
-8 -4 0
8 114 0
-8 -114 0
135 73 0
-135 -73 0
135 124 0
-135 -124 0
135 77 0
-135 -77 0
99 74 0
-99 -74 0
99 7 0
-99 -7 0
99 119 0
-99 -119 0
29 80 0
-29 -80 0
29 55 0
-29 -55 0
29 137 0
-29 -137 0
31 48 0
-31 -48 0
31 117 0
-31 -117 0
31 23 0
-31 -23 0
105 81 0
-105 -81 0
105 73 0
-105 -73 0
105 34 0
-105 -34 0
46 55 0
-46 -55 0
46 15 0
-46 -15 0
46 78 0
-46 -78 0
32 7 0
-32 -7 0
32 116 0
-32 -116 0
32 17 0
-32 -17 0
131 3 0
-131 -3 0
131 25 0
-131 -25 0
131 15 0
-131 -15 0
91 82 0
-91 -82 0
91 126 0
-91 -126 0
91 55 0
-91 -55 0
10 110 0
-10 -110 0
10 39 0
-10 -39 0
10 73 0
-10 -73 0
136 65 0
-136 -65 0
136 72 0
-136 -72 0
136 66 0
-136 -66 0
64 98 0
-64 -98 0
64 117 0
-64 -117 0
93 33 0
-93 -33 0
93 102 0
-93 -102 0
95 97 0
-95 -97 0
95 20 0
-95 -20 0
58 77 0
-58 -77 0
58 100 0
-58 -100 0
58 137 0
-58 -137 0
76 101 0
-76 -101 0
76 49 0
-76 -49 0
76 111 0
-76 -111 0
106 42 0
-106 -42 0
106 109 0
-106 -109 0
35 67 0
-35 -67 0
35 133 0
-35 -133 0
94 92 0
-94 -92 0
94 87 0
-94 -87 0
94 3 0
-94 -3 0
83 134 0
-83 -134 0
83 109 0
-83 -109 0
83 44 0
-83 -44 0
103 24 0
-103 -24 0
103 3 0
-103 -3 0
9 23 0
-9 -23 0
9 111 0
-9 -111 0
9 50 0
-9 -50 0
90 72 0
-90 -72 0
90 81 0
-90 -81 0
90 122 0
-90 -122 0
89 133 0
-89 -133 0
89 123 0
-89 -123 0
41 100 0
-41 -100 0
41 86 0
-41 -86 0
41 20 0
-41 -20 0
68 114 0
-68 -114 0
68 71 0
-68 -71 0
68 101 0
-68 -101 0
45 109 0
-45 -109 0
45 72 0
-45 -72 0
45 49 0
-45 -49 0
6 15 0
-6 -15 0
6 97 0
-6 -97 0
6 124 0
-6 -124 0
108 79 0
-108 -79 0
108 97 0
-108 -97 0
53 86 0
-53 -86 0
53 134 0
-53 -134 0
128 44 0
-128 -44 0
128 36 0
-128 -36 0
128 48 0
-128 -48 0
40 122 0
-40 -122 0
40 98 0
-40 -98 0
40 24 0
-40 -24 0
112 57 0
-112 -57 0
112 39 0
-112 -39 0
112 48 0
-112 -48 0
59 34 0
-59 -34 0
59 67 0
-59 -67 0
59 129 0
-59 -129 0
43 126 0
-43 -126 0
43 134 0
-43 -134 0
43 96 0
-43 -96 0
125 116 0
-125 -116 0
125 107 0
-125 -107 0
22 87 0
-22 -87 0
22 63 0
-22 -63 0
22 28 0
-22 -28 0
11 17 0
-11 -17 0
11 123 0
-11 -123 0
11 69 0
-11 -69 0
52 124 0
-52 -124 0
52 44 0
-52 -44 0
52 116 0
-52 -116 0
115 62 0
-115 -62 0
115 60 0
-115 -60 0
115 7 0
-115 -7 0
51 12 0
-51 -12 0
51 42 0
-51 -42 0
51 78 0
-51 -78 0
13 132 0
-13 -132 0
13 60 0
-13 -60 0
131 52 0
-131 -52 0
84 134 0
-84 -134 0
134 132 0
-134 -132 0
118 42 0
-118 -42 0
39 4 0
-39 -4 0
136 111 0
-136 -111 0
130 138 0
-130 -138 0
6 109 0
-6 -109 0
16 4 0
-16 -4 0
20 42 0
-20 -42 0
83 102 0
-83 -102 0
47 54 0
-47 -54 0
41 53 0
-41 -53 0
93 35 0
-93 -35 0
58 107 0
-58 -107 0
135 74 0
-135 -74 0
83 133 0
-83 -133 0
130 22 0
-130 -22 0
45 25 0
-45 -25 0
90 53 0
-90 -53 0
61 77 0
-61 -77 0
32 67 0
-32 -67 0
129 100 0
-129 -100 0
21 135 0
-21 -135 0
106 87 0
-106 -87 0
66 110 0
-66 -110 0
140 122 0
-140 -122 0
7 12 0
-7 -12 0
49 48 0
-49 -48 0
29 114 0
-29 -114 0
64 24 0
-64 -24 0
84 19 0
-84 -19 0
8 112 0
-8 -112 0
103 129 0
-103 -129 0
37 43 0
-37 -43 0
9 87 0
-9 -87 0
121 41 0
-121 -41 0
85 88 0
-85 -88 0
139 95 0
-139 -95 0
97 101 0
-97 -101 0
44 124 0
-44 -124 0
138 124 0
-138 -124 0
111 7 0
-111 -7 0
4 63 0
-4 -63 0
16 92 0
-16 -92 0
123 17 0
-123 -17 0
113 26 0
-113 -26 0
131 83 0
-131 -83 0
13 96 0
-13 -96 0
121 21 0
-121 -21 0
58 89 0
-58 -89 0
89 109 0
-89 -109 0
19 57 0
-19 -57 0
31 74 0
-31 -74 0
60 73 0
-60 -73 0
106 9 0
-106 -9 0
129 42 0
-129 -42 0
29 91 0
-29 -91 0
27 106 0
-27 -106 0
7 92 0
-7 -92 0
78 116 0
-78 -116 0
131 42 0
-131 -42 0
31 79 0
-31 -79 0
11 55 0
-11 -55 0
8 74 0
-8 -74 0
139 31 0
-139 -31 0
84 68 0
-84 -68 0
70 44 0
-70 -44 0
55 114 0
-55 -114 0
61 16 0
-61 -16 0
94 117 0
-94 -117 0
33 57 0
-33 -57 0
81 24 0
-81 -24 0
53 33 0
-53 -33 0
41 52 0
-41 -52 0
70 25 0
-70 -25 0
10 93 0
-10 -93 0
26 56 0
-26 -56 0
136 112 0
-136 -112 0
60 80 0
-60 -80 0
43 2 0
-43 -2 0
69 74 0
-69 -74 0
49 55 0
-49 -55 0
105 55 0
-105 -55 0
16 7 0
-16 -7 0
1 43 0
-1 -43 0
104 9 0
-104 -9 0
27 73 0
-27 -73 0
46 94 0
-46 -94 0
115 82 0
-115 -82 0
53 82 0
-53 -82 0
5 68 0
-5 -68 0
45 77 0
-45 -77 0
6 7 0
-6 -7 0
21 131 0
-21 -131 0
120 42 0
-120 -42 0
85 112 0
-85 -112 0
116 87 0
-116 -87 0
45 123 0
-45 -123 0
115 127 0
-115 -127 0
10 109 0
-10 -109 0
7 79 0
-7 -79 0
54 50 0
-54 -50 0
35 17 0
-35 -17 0
50 14 0
-50 -14 0
18 133 0
-18 -133 0
19 92 0
-19 -92 0
47 11 0
-47 -11 0
41 17 0
-41 -17 0
135 31 0
-135 -31 0
138 82 0
-138 -82 0
32 103 0
-32 -103 0
104 66 0
-104 -66 0
121 3 0
-121 -3 0
69 110 0
-69 -110 0
59 123 0
-59 -123 0
19 137 0
-19 -137 0
39 88 0
-39 -88 0
99 108 0
-99 -108 0
6 48 0
-6 -48 0
84 132 0
-84 -132 0
27 114 0
-27 -114 0
65 114 0
-65 -114 0
27 15 0
-27 -15 0
1 130 0
-1 -130 0
52 123 0
-52 -123 0
5 98 0
-5 -98 0
47 72 0
-47 -72 0
27 105 0
-27 -105 0
84 102 0
-84 -102 0
86 116 0
-86 -116 0
40 57 0
-40 -57 0
38 75 0
-38 -75 0
47 105 0
-47 -105 0
139 56 0
-139 -56 0
5 108 0
-5 -108 0
76 62 0
-76 -62 0
22 134 0
-22 -134 0
37 57 0
-37 -57 0
129 49 0
-129 -49 0
137 33 0
-137 -33 0
78 87 0
-78 -87 0
58 50 0
-58 -50 0
46 103 0
-46 -103 0
27 70 0
-27 -70 0
105 137 0
-105 -137 0
113 52 0
-113 -52 0
95 34 0
-95 -34 0
1 23 0
-1 -23 0
16 87 0
-16 -87 0
111 124 0
-111 -124 0
4 23 0
-4 -23 0
9 100 0
-9 -100 0
75 117 0
-75 -117 0
96 122 0
-96 -122 0
3 109 0
-3 -109 0
80 97 0
-80 -97 0
51 126 0
-51 -126 0
51 73 0
-51 -73 0
60 109 0
-60 -109 0
58 119 0
-58 -119 0
10 14 0
-10 -14 0
37 65 0
-37 -65 0
121 13 0
-121 -13 0
83 66 0
-83 -66 0
37 42 0
-37 -42 0
39 28 0
-39 -28 0
59 42 0
-59 -42 0
63 101 0
-63 -101 0
7 97 0
-7 -97 0
26 127 0
-26 -127 0
110 65 0
-110 -65 0
96 57 0
-96 -57 0
60 12 0
-60 -12 0
76 14 0
-76 -14 0
75 133 0
-75 -133 0
123 20 0
-123 -20 0
37 45 0
-37 -45 0
111 86 0
-111 -86 0
27 60 0
-27 -60 0
130 137 0
-130 -137 0
40 66 0
-40 -66 0
13 116 0
-13 -116 0
101 122 0
-101 -122 0
123 74 0
-123 -74 0
13 2 0
-13 -2 0
53 98 0
-53 -98 0
58 132 0
-58 -132 0
44 132 0
-44 -132 0
98 97 0
-98 -97 0
26 67 0
-26 -67 0
46 25 0
-46 -25 0
18 10 0
-18 -10 0
58 79 0
-58 -79 0
32 123 0
-32 -123 0
61 59 0
-61 -59 0
61 122 0
-61 -122 0
36 67 0
-36 -67 0
131 86 0
-131 -86 0
90 20 0
-90 -20 0
118 10 0
-118 -10 0
76 52 0
-76 -52 0
108 42 0
-108 -42 0
91 42 0
-91 -42 0
98 17 0
-98 -17 0
74 72 0
-74 -72 0
6 125 0
-6 -125 0
4 92 0
-4 -92 0
56 12 0
-56 -12 0
90 125 0
-90 -125 0
2 24 0
-2 -24 0
29 50 0
-29 -50 0
125 66 0
-125 -66 0
30 8 0
-30 -8 0
118 37 0
-118 -37 0
130 65 0
-130 -65 0
39 110 0
-39 -110 0
32 41 0
-32 -41 0
5 88 0
-5 -88 0
93 132 0
-93 -132 0
96 109 0
-96 -109 0
118 17 0
-118 -17 0
93 86 0
-93 -86 0
103 116 0
-103 -116 0
140 105 0
-140 -105 0
133 124 0
-133 -124 0
94 77 0
-94 -77 0
95 79 0
-95 -79 0
48 57 0
-48 -57 0
23 15 0
-23 -15 0
106 103 0
-106 -103 0
90 73 0
-90 -73 0
140 137 0
-140 -137 0
106 129 0
-106 -129 0
136 11 0
-136 -11 0
56 110 0
-56 -110 0
99 22 0
-99 -22 0
91 106 0
-91 -106 0
18 39 0
-18 -39 0
75 14 0
-75 -14 0
129 7 0
-129 -7 0
83 74 0
-83 -74 0
31 13 0
-31 -13 0
41 51 0
-41 -51 0
127 102 0
-127 -102 0
38 79 0
-38 -79 0
38 44 0
-38 -44 0
22 115 0
-22 -115 0
68 44 0
-68 -44 0
113 103 0
-113 -103 0
19 39 0
-19 -39 0
66 14 0
-66 -14 0
39 124 0
-39 -124 0
30 122 0
-30 -122 0
1 22 0
-1 -22 0
21 11 0
-21 -11 0
11 28 0
-11 -28 0
39 126 0
-39 -126 0
76 83 0
-76 -83 0
135 97 0
-135 -97 0
125 110 0
-125 -110 0
79 116 0
-79 -116 0
138 101 0
-138 -101 0
121 133 0
-121 -133 0
123 72 0
-123 -72 0
32 62 0
-32 -62 0
105 63 0
-105 -63 0
136 94 0
-136 -94 0
15 34 0
-15 -34 0
41 111 0
-41 -111 0
69 134 0
-69 -134 0
93 109 0
-93 -109 0
73 114 0
-73 -114 0
32 11 0
-32 -11 0
25 133 0
-25 -133 0
106 25 0
-106 -25 0
78 63 0
-78 -63 0
30 57 0
-30 -57 0
129 98 0
-129 -98 0
47 136 0
-47 -136 0
128 59 0
-128 -59 0
118 9 0
-118 -9 0
46 119 0
-46 -119 0
69 33 0
-69 -33 0
47 113 0
-47 -113 0
129 111 0
-129 -111 0
19 22 0
-19 -22 0
56 23 0
-56 -23 0
41 108 0
-41 -108 0
19 80 0
-19 -80 0
66 92 0
-66 -92 0
95 12 0
-95 -12 0
11 42 0
-11 -42 0
42 44 0
-42 -44 0
30 34 0
-30 -34 0
52 36 0
-52 -36 0
102 74 0
-102 -74 0
49 111 0
-49 -111 0
140 66 0
-140 -66 0
138 73 0
-138 -73 0
90 57 0
-90 -57 0
111 137 0
-111 -137 0
43 14 0
-43 -14 0
11 15 0
-11 -15 0
45 42 0
-45 -42 0
84 13 0
-84 -13 0
27 12 0
-27 -12 0
108 119 0
-108 -119 0
6 50 0
-6 -50 0
71 42 0
-71 -42 0
18 35 0
-18 -35 0
113 32 0
-113 -32 0
50 82 0
-50 -82 0
64 14 0
-64 -14 0
80 126 0
-80 -126 0
37 95 0
-37 -95 0
125 28 0
-125 -28 0
14 81 0
-14 -81 0
75 12 0
-75 -12 0
16 118 0
-16 -118 0
56 137 0
-56 -137 0
38 84 0
-38 -84 0
59 77 0
-59 -77 0
75 21 0
-75 -21 0
139 104 0
-139 -104 0
18 107 0
-18 -107 0
8 15 0
-8 -15 0
96 77 0
-96 -77 0
20 78 0
-20 -78 0
106 101 0
-106 -101 0
120 95 0
-120 -95 0
110 77 0
-110 -77 0
30 127 0
-30 -127 0
81 133 0
-81 -133 0
68 124 0
-68 -124 0
22 20 0
-22 -20 0
74 97 0
-74 -97 0
136 60 0
-136 -60 0
82 126 0
-82 -126 0
78 111 0
-78 -111 0
47 9 0
-47 -9 0
30 80 0
-30 -80 0
22 102 0
-22 -102 0
101 109 0
-101 -109 0
125 34 0
-125 -34 0
130 67 0
-130 -67 0
10 2 0
-10 -2 0
26 109 0
-26 -109 0
94 101 0
-94 -101 0
25 62 0
-25 -62 0
18 93 0
-18 -93 0
75 42 0
-75 -42 0
16 31 0
-16 -31 0
88 81 0
-88 -81 0
61 81 0
-61 -81 0
59 25 0
-59 -25 0
61 118 0
-61 -118 0
26 77 0
-26 -77 0
140 23 0
-140 -23 0
41 109 0
-41 -109 0
19 10 0
-19 -10 0
69 129 0
-69 -129 0
70 119 0
-70 -119 0
10 96 0
-10 -96 0
136 9 0
-136 -9 0
59 52 0
-59 -52 0
45 40 0
-45 -40 0
19 125 0
-19 -125 0
19 131 0
-19 -131 0
99 124 0
-99 -124 0
68 110 0
-68 -110 0
107 101 0
-107 -101 0
126 62 0
-126 -62 0
75 140 0
-75 -140 0
120 40 0
-120 -40 0
46 14 0
-46 -14 0
121 131 0
-121 -131 0
140 52 0
-140 -52 0
135 93 0
-135 -93 0
88 67 0
-88 -67 0
121 91 0
-121 -91 0
130 115 0
-130 -115 0
106 34 0
-106 -34 0
135 44 0
-135 -44 0
41 45 0
-41 -45 0
131 81 0
-131 -81 0
9 88 0
-9 -88 0
61 98 0
-61 -98 0
38 67 0
-38 -67 0
35 12 0
-35 -12 0
136 78 0
-136 -78 0
118 116 0
-118 -116 0
91 50 0
-91 -50 0
118 70 0
-118 -70 0
138 89 0
-138 -89 0
84 58 0
-84 -58 0
22 123 0
-22 -123 0
52 100 0
-52 -100 0
94 44 0
-94 -44 0
131 89 0
-131 -89 0
29 12 0
-29 -12 0
21 109 0
-21 -109 0
53 23 0
-53 -23 0
26 11 0
-26 -11 0
6 67 0
-6 -67 0
99 41 0
-99 -41 0
138 136 0
-138 -136 0
31 49 0
-31 -49 0
90 79 0
-90 -79 0
106 89 0
-106 -89 0
83 73 0
-83 -73 0
133 109 0
-133 -109 0
84 108 0
-84 -108 0
96 14 0
-96 -14 0
29 103 0
-29 -103 0
37 79 0
-37 -79 0
28 74 0
-28 -74 0
7 124 0
-7 -124 0
40 96 0
-40 -96 0
32 94 0
-32 -94 0
76 98 0
-76 -98 0
26 100 0
-26 -100 0
41 63 0
-41 -63 0
56 42 0
-56 -42 0
54 14 0
-54 -14 0
6 66 0
-6 -66 0
129 134 0
-129 -134 0
111 55 0
-111 -55 0
99 83 0
-99 -83 0
5 9 0
-5 -9 0
127 3 0
-127 -3 0
59 60 0
-59 -60 0
74 86 0
-74 -86 0
47 17 0
-47 -17 0
139 41 0
-139 -41 0
119 110 0
-119 -110 0
127 98 0
-127 -98 0
121 58 0
-121 -58 0
84 36 0
-84 -36 0
118 36 0
-118 -36 0
118 137 0
-118 -137 0
